words_hard_train/9935.qaiger
aag 105 16 0 1 89
2
4
8
14
20
28
30
34
38
90
102
120
128
148
156
186
211
6 2 4
10 8 4
12 7 11
16 12 15
18 17 4
22 19 20
24 18 21
26 23 25
32 29 31
36 33 34
40 37 39
42 34 38
44 42 33
46 41 45
48 26 46
50 10 3
52 51 30
54 11 2
56 52 55
58 9 28
60 2 31
62 58 61
64 63 33
66 57 64
68 32 35
70 69 37
72 13 14
74 73 17
76 70 75
78 66 77
80 71 74
82 79 81
84 49 83
86 27 47
88 85 87
92 44 90
94 45 91
96 93 95
98 16 21
100 99 4
104 100 102
106 101 103
108 105 107
110 96 108
112 88 111
114 97 109
116 113 115
118 107 4
122 119 120
124 118 121
126 123 125
130 95 128
132 94 129
134 131 133
136 127 134
138 117 137
140 126 135
142 139 141
144 106 121
146 145 4
150 147 149
152 146 148
154 151 153
158 132 157
160 133 156
162 159 161
164 154 162
166 143 165
168 155 163
170 167 169
172 144 4
174 172 149
176 171 174
178 42 32
180 91 157
182 180 129
184 178 182
188 184 186
190 176 189
192 170 175
194 188 192
196 191 195
198 182 43
200 198 186
202 199 187
204 201 203
206 205 185
208 206 193
210 196 209
i0 1 x2[1]
i1 1 x2[7]
i2 1 x2[0]
i3 1 x2[2]
i4 1 x2[3]
i5 2 y2[0]
i6 2 y2[1]
i7 2 y2[2]
i8 2 y2[3]
i9 2 y2[4]
i10 1 x2[4]
i11 1 x2[5]
i12 2 y2[5]
i13 1 x2[6]
i14 2 y2[6]
i15 2 y2[7]
o0 bv[0]
c
simplified
  <
    abs
      1 x2
    add
      245
      subtract
        2 y2
        1
