words_hard_train/9935.qaiger.qdimacs
p cnf 105 268
a 1 2 4 7 10 74 51 60 0
e 3 5 6 8 9 11 12 13 14 15 16 17 18 19 20 21 22 23 24 25 26 27 28 29 30 31 32 33 34 35 36 37 38 39 40 41 42 43 44 45 46 47 48 49 50 52 53 54 55 56 57 58 59 61 62 63 64 65 66 67 68 69 70 71 72 73 75 76 77 78 79 80 81 82 83 84 85 86 87 88 89 90 91 92 93 94 95 96 97 98 99 100 101 102 103 104 105 0
-1 -2 3 0
1 -3 0
2 -3 0
-4 -2 5 0
4 -5 0
2 -5 0
3 5 6 0
-3 -6 0
-5 -6 0
-6 7 8 0
6 -8 0
-7 -8 0
8 -2 9 0
-8 -9 0
2 -9 0
9 -10 11 0
-9 -11 0
10 -11 0
-9 10 12 0
9 -12 0
-10 -12 0
11 12 13 0
-11 -13 0
-12 -13 0
14 15 16 0
-14 -16 0
-15 -16 0
16 -17 18 0
-16 -18 0
17 -18 0
18 19 20 0
-18 -20 0
-19 -20 0
-17 -19 21 0
17 -21 0
19 -21 0
-21 16 22 0
21 -22 0
-16 -22 0
20 22 23 0
-20 -23 0
-22 -23 0
-13 -23 24 0
13 -24 0
23 -24 0
-5 1 25 0
5 -25 0
-1 -25 0
25 -15 26 0
-25 -26 0
15 -26 0
5 -1 27 0
-5 -27 0
1 -27 0
-26 27 28 0
26 -28 0
-27 -28 0
4 -14 29 0
-4 -29 0
14 -29 0
-1 15 30 0
1 -30 0
-15 -30 0
-29 30 31 0
29 -31 0
-30 -31 0
31 16 32 0
-31 -32 0
-16 -32 0
28 -32 33 0
-28 -33 0
32 -33 0
-16 17 34 0
16 -34 0
-17 -34 0
34 18 35 0
-34 -35 0
-18 -35 0
6 -7 36 0
-6 -36 0
7 -36 0
36 8 37 0
-36 -37 0
-8 -37 0
-35 37 38 0
35 -38 0
-37 -38 0
-33 38 39 0
33 -39 0
-38 -39 0
35 -37 40 0
-35 -40 0
37 -40 0
39 40 41 0
-39 -41 0
-40 -41 0
24 41 42 0
-24 -42 0
-41 -42 0
13 23 43 0
-13 -43 0
-23 -43 0
42 43 44 0
-42 -44 0
-43 -44 0
-22 -45 46 0
22 -46 0
45 -46 0
22 45 47 0
-22 -47 0
-45 -47 0
46 47 48 0
-46 -48 0
-47 -48 0
-8 10 49 0
8 -49 0
-10 -49 0
49 -2 50 0
-49 -50 0
2 -50 0
-50 -51 52 0
50 -52 0
51 -52 0
50 51 53 0
-50 -53 0
-51 -53 0
52 53 54 0
-52 -54 0
-53 -54 0
-48 -54 55 0
48 -55 0
54 -55 0
-44 55 56 0
44 -56 0
-55 -56 0
48 54 57 0
-48 -57 0
-54 -57 0
56 57 58 0
-56 -58 0
-57 -58 0
53 -2 59 0
-53 -59 0
2 -59 0
59 -60 61 0
-59 -61 0
60 -61 0
-59 60 62 0
59 -62 0
-60 -62 0
61 62 63 0
-61 -63 0
-62 -63 0
47 -64 65 0
-47 -65 0
64 -65 0
-47 64 66 0
47 -66 0
-64 -66 0
65 66 67 0
-65 -67 0
-66 -67 0
63 -67 68 0
-63 -68 0
67 -68 0
58 68 69 0
-58 -69 0
-68 -69 0
-63 67 70 0
63 -70 0
-67 -70 0
69 70 71 0
-69 -71 0
-70 -71 0
-53 60 72 0
53 -72 0
-60 -72 0
72 -2 73 0
-72 -73 0
2 -73 0
73 74 75 0
-73 -75 0
-74 -75 0
-73 -74 76 0
73 -76 0
74 -76 0
75 76 77 0
-75 -77 0
-76 -77 0
-66 78 79 0
66 -79 0
-78 -79 0
66 -78 80 0
-66 -80 0
78 -80 0
79 80 81 0
-79 -81 0
-80 -81 0
-77 -81 82 0
77 -82 0
81 -82 0
71 82 83 0
-71 -83 0
-82 -83 0
77 81 84 0
-77 -84 0
-81 -84 0
83 84 85 0
-83 -85 0
-84 -85 0
-72 -2 86 0
72 -86 0
2 -86 0
-86 74 87 0
86 -87 0
-74 -87 0
85 -87 88 0
-85 -88 0
87 -88 0
-21 -16 89 0
21 -89 0
16 -89 0
45 78 90 0
-45 -90 0
-78 -90 0
-90 64 91 0
90 -91 0
-64 -91 0
-89 -91 92 0
89 -92 0
91 -92 0
-92 -93 94 0
92 -94 0
93 -94 0
-88 94 95 0
88 -95 0
-94 -95 0
-85 87 96 0
85 -96 0
-87 -96 0
-94 -96 97 0
94 -97 0
96 -97 0
95 97 98 0
-95 -98 0
-97 -98 0
-91 21 99 0
91 -99 0
-21 -99 0
-99 -93 100 0
99 -100 0
93 -100 0
99 93 101 0
-99 -101 0
-93 -101 0
100 101 102 0
-100 -102 0
-101 -102 0
102 92 103 0
-102 -103 0
-92 -103 0
-103 96 104 0
103 -104 0
-96 -104 0
-98 104 105 0
98 -105 0
-104 -105 0
-105 0
